c This Formular is generated by mcnf
c
c    horn? no 
c    forced? no 
c    mixed sat? no 
c    clause length = 3 
c
p cnf ? ?
30 -19 -3 0
89 31 -42 0
1 10 38 0
2 -21 -98 0
36 56 -78 0
14 -59 -87 0
89 -75 -86 0
-20 -80 4 0
-63 90 -55 0
59 75 9 0
-5 31 -97 0
48 -35 58 0
28 84 16 0
65 -4 94 0
-72 -23 7 0
18 -64 -55 0
-96 3 -35 0
89 -65 83 0
8 -60 -28 0